p cnf 856 612
c p distribution  0.875 0.125
c p distribution  0.875 0.125
c p distribution  0.875 0.125
c p distribution  0.875 0.125
c p distribution  0.875 0.125
c p distribution  0.875 0.125
c p distribution  0.875 0.125
c p distribution  0.875 0.125
c p distribution  0.875 0.125
c p distribution  0.875 0.125
c p distribution  0.875 0.125
c p distribution  0.875 0.125
c p distribution  0.875 0.125
c p distribution  0.875 0.125
c p distribution  0.875 0.125
c p distribution  0.875 0.125
c p distribution  0.875 0.125
c p distribution  0.875 0.125
c p distribution  0.875 0.125
c p distribution  0.875 0.125
c p distribution  0.875 0.125
c p distribution  0.875 0.125
c p distribution  0.875 0.125
c p distribution  0.875 0.125
c p distribution  0.875 0.125
c p distribution  0.875 0.125
c p distribution  0.875 0.125
c p distribution  0.875 0.125
c p distribution  0.875 0.125
c p distribution  0.875 0.125
c p distribution  0.875 0.125
c p distribution  0.875 0.125
c p distribution  0.875 0.125
c p distribution  0.875 0.125
c p distribution  0.875 0.125
c p distribution  0.875 0.125
c p distribution  0.875 0.125
c p distribution  0.875 0.125
c p distribution  0.875 0.125
c p distribution  0.875 0.125
c p distribution  0.875 0.125
c p distribution  0.875 0.125
c p distribution  0.875 0.125
c p distribution  0.875 0.125
c p distribution  0.875 0.125
c p distribution  0.875 0.125
c p distribution  0.875 0.125
c p distribution  0.875 0.125
c p distribution  0.875 0.125
c p distribution  0.875 0.125
c p distribution  0.875 0.125
c p distribution  0.875 0.125
c p distribution  0.875 0.125
c p distribution  0.875 0.125
c p distribution  0.875 0.125
c p distribution  0.875 0.125
c p distribution  0.875 0.125
c p distribution  0.875 0.125
c p distribution  0.875 0.125
c p distribution  0.875 0.125
c p distribution  0.875 0.125
c p distribution  0.875 0.125
c p distribution  0.875 0.125
c p distribution  0.875 0.125
c p distribution  0.875 0.125
c p distribution  0.875 0.125
c p distribution  0.875 0.125
c p distribution  0.875 0.125
c p distribution  0.875 0.125
c p distribution  0.875 0.125
c p distribution  0.875 0.125
c p distribution  0.875 0.125
c p distribution  0.875 0.125
c p distribution  0.875 0.125
c p distribution  0.875 0.125
c p distribution  0.875 0.125
c p distribution  0.875 0.125
c p distribution  0.875 0.125
c p distribution  0.875 0.125
c p distribution  0.875 0.125
c p distribution  0.875 0.125
c p distribution  0.875 0.125
c p distribution  0.875 0.125
c p distribution  0.875 0.125
c p distribution  0.875 0.125
c p distribution  0.875 0.125
c p distribution  0.875 0.125
c p distribution  0.875 0.125
c p distribution  0.875 0.125
c p distribution  0.875 0.125
c p distribution  0.875 0.125
c p distribution  0.875 0.125
c p distribution  0.875 0.125
c p distribution  0.875 0.125
c p distribution  0.875 0.125
c p distribution  0.875 0.125
c p distribution  0.875 0.125
c p distribution  0.875 0.125
c p distribution  0.875 0.125
c p distribution  0.875 0.125
c p distribution  0.875 0.125
c p distribution  0.875 0.125
c p distribution  0.875 0.125
c p distribution  0.875 0.125
c p distribution  0.875 0.125
c p distribution  0.875 0.125
c p distribution  0.875 0.125
c p distribution  0.875 0.125
c p distribution  0.875 0.125
c p distribution  0.875 0.125
c p distribution  0.875 0.125
c p distribution  0.875 0.125
c p distribution  0.875 0.125
c p distribution  0.875 0.125
c p distribution  0.875 0.125
c p distribution  0.875 0.125
c p distribution  0.875 0.125
c p distribution  0.875 0.125
c p distribution  0.875 0.125
c p distribution  0.875 0.125
c p distribution  0.875 0.125
c p distribution  0.875 0.125
c p distribution  0.875 0.125
c p distribution  0.875 0.125
c p distribution  0.875 0.125
c p distribution  0.875 0.125
c p distribution  0.875 0.125
c p distribution  0.875 0.125
c p distribution  0.875 0.125
c p distribution  0.875 0.125
c p distribution  0.875 0.125
c p distribution  0.875 0.125
c p distribution  0.875 0.125
c p distribution  0.875 0.125
c p distribution  0.875 0.125
c p distribution  0.875 0.125
c p distribution  0.875 0.125
c p distribution  0.875 0.125
c p distribution  0.875 0.125
c p distribution  0.875 0.125
c p distribution  0.875 0.125
c p distribution  0.875 0.125
c p distribution  0.875 0.125
c p distribution  0.875 0.125
c p distribution  0.875 0.125
c p distribution  0.875 0.125
c p distribution  0.875 0.125
c p distribution  0.875 0.125
c p distribution  0.875 0.125
c p distribution  0.875 0.125
c p distribution  0.875 0.125
c p distribution  0.875 0.125
c p distribution  0.875 0.125
c p distribution  0.875 0.125
c p distribution  0.875 0.125
c p distribution  0.875 0.125
c p distribution  0.875 0.125
c p distribution  0.875 0.125
c p distribution  0.875 0.125
c p distribution  0.875 0.125
c p distribution  0.875 0.125
c p distribution  0.875 0.125
c p distribution  0.875 0.125
c p distribution  0.875 0.125
c p distribution  0.875 0.125
c p distribution  0.875 0.125
c p distribution  0.875 0.125
c p distribution  0.875 0.125
c p distribution  0.875 0.125
c p distribution  0.875 0.125
c p distribution  0.875 0.125
c p distribution  0.875 0.125
c p distribution  0.875 0.125
c p distribution  0.875 0.125
c p distribution  0.875 0.125
c p distribution  0.875 0.125
c p distribution  0.875 0.125
c p distribution  0.875 0.125
c p distribution  0.875 0.125
c p distribution  0.875 0.125
c p distribution  0.875 0.125
c p distribution  0.875 0.125
c p distribution  0.875 0.125
c p distribution  0.875 0.125
c p distribution  0.875 0.125
c p distribution  0.875 0.125
c p distribution  0.875 0.125
c p distribution  0.875 0.125
c p distribution  0.875 0.125
c p distribution  0.875 0.125
c p distribution  0.875 0.125
c p distribution  0.875 0.125
c p distribution  0.875 0.125
c p distribution  0.875 0.125
c p distribution  0.875 0.125
c p distribution  0.875 0.125
c p distribution  0.875 0.125
c p distribution  0.875 0.125
c p distribution  0.875 0.125
c p distribution  0.875 0.125
c p distribution  0.875 0.125
c p distribution  0.875 0.125
c p distribution  0.875 0.125
c p distribution  0.875 0.125
c p distribution  0.875 0.125
c p distribution  0.875 0.125
c p distribution  0.875 0.125
c p distribution  0.875 0.125
c p distribution  0.875 0.125
c p distribution  0.875 0.125
c p distribution  0.875 0.125
c p distribution  0.875 0.125
c p distribution  0.875 0.125
c p distribution  0.875 0.125
c p distribution  0.875 0.125
c p distribution  0.875 0.125
c p distribution  0.875 0.125
c p distribution  0.875 0.125
c p distribution  0.875 0.125
c p distribution  0.875 0.125
c p distribution  0.875 0.125
c p distribution  0.875 0.125
c p distribution  0.875 0.125
c p distribution  0.875 0.125
c p distribution  0.875 0.125
c p distribution  0.875 0.125
c p distribution  0.875 0.125
c p distribution  0.875 0.125
c p distribution  0.875 0.125
c p distribution  0.875 0.125
c p distribution  0.875 0.125
c p distribution  0.875 0.125
c p distribution  0.875 0.125
c p distribution  0.875 0.125
c p distribution  0.875 0.125
c p distribution  0.875 0.125
c p distribution  0.875 0.125
c p distribution  0.875 0.125
c p distribution  0.875 0.125
c p distribution  0.875 0.125
c p distribution  0.875 0.125
c p distribution  0.875 0.125
c p distribution  0.875 0.125
c p distribution  0.875 0.125
c p distribution  0.875 0.125
c p distribution  0.875 0.125
c p distribution  0.875 0.125
c p distribution  0.875 0.125
c p distribution  0.875 0.125
c p distribution  0.875 0.125
c p distribution  0.875 0.125
c p distribution  0.875 0.125
c p distribution  0.875 0.125
c p distribution  0.875 0.125
c p distribution  0.875 0.125
c p distribution  0.875 0.125
c p distribution  0.875 0.125
c p distribution  0.875 0.125
c p distribution  0.875 0.125
c p distribution  0.875 0.125
c p distribution  0.875 0.125
c p distribution  0.875 0.125
c p distribution  0.875 0.125
c p distribution  0.875 0.125
c p distribution  0.875 0.125
c p distribution  0.875 0.125
c p distribution  0.875 0.125
c p distribution  0.875 0.125
c p distribution  0.875 0.125
c p distribution  0.875 0.125
c p distribution  0.875 0.125
c p distribution  0.875 0.125
c p distribution  0.875 0.125
c p distribution  0.875 0.125
c p distribution  0.875 0.125
c p distribution  0.875 0.125
c p distribution  0.875 0.125
c p distribution  0.875 0.125
c p distribution  0.875 0.125
c p distribution  0.875 0.125
c p distribution  0.875 0.125
c p distribution  0.875 0.125
c p distribution  0.875 0.125
c p distribution  0.875 0.125
c p distribution  0.875 0.125
c p distribution  0.875 0.125
c p distribution  0.875 0.125
c p distribution  0.875 0.125
c p distribution  0.875 0.125
c p distribution  0.875 0.125
c p distribution  0.875 0.125
c p distribution  0.875 0.125
c p distribution  0.875 0.125
c p distribution  0.875 0.125
c p distribution  0.875 0.125
c p distribution  0.875 0.125
c p distribution  0.875 0.125
c p distribution  0.875 0.125
c p distribution  0.875 0.125
c p distribution  0.875 0.125
c p distribution  0.875 0.125
c p distribution  0.875 0.125
c p distribution  0.875 0.125
c p distribution  0.875 0.125
c p distribution  0.875 0.125
729 0
-727 0
679 -688 -1 0
688 -679 -1 0
824 -791 -3 0
791 -824 -3 0
829 -782 -5 0
782 -829 -5 0
773 -636 -7 0
636 -773 -7 0
727 -665 -9 0
665 -727 -9 0
753 -715 -11 0
715 -753 -11 0
748 -801 -13 0
801 -748 -13 0
808 -620 -15 0
620 -808 -15 0
732 -711 -17 0
711 -732 -17 0
707 -626 -19 0
626 -707 -19 0
821 -745 -21 0
745 -821 -21 0
653 -793 -23 0
793 -653 -23 0
621 -845 -25 0
845 -621 -25 0
758 -708 -27 0
708 -758 -27 0
706 -655 -29 0
655 -706 -29 0
645 -764 -31 0
764 -645 -31 0
705 -749 -33 0
749 -705 -33 0
668 -646 -35 0
646 -668 -35 0
720 -830 -37 0
830 -720 -37 0
820 -813 -39 0
813 -820 -39 0
825 -643 -41 0
643 -825 -41 0
776 -669 -43 0
669 -776 -43 0
629 -670 -45 0
670 -629 -45 0
630 -681 -47 0
681 -630 -47 0
766 -728 -49 0
728 -766 -49 0
693 -710 -51 0
710 -693 -51 0
737 -682 -53 0
682 -737 -53 0
689 -652 -55 0
652 -689 -55 0
696 -647 -57 0
647 -696 -57 0
741 -738 -59 0
738 -741 -59 0
771 -713 -61 0
713 -771 -61 0
816 -826 -63 0
826 -816 -63 0
716 -711 -65 0
711 -716 -65 0
652 -618 -67 0
618 -652 -67 0
806 -666 -69 0
666 -806 -69 0
721 -633 -71 0
633 -721 -71 0
640 -821 -73 0
821 -640 -73 0
740 -654 -75 0
654 -740 -75 0
848 -812 -77 0
812 -848 -77 0
853 -686 -79 0
686 -853 -79 0
662 -616 -81 0
616 -662 -81 0
642 -819 -83 0
819 -642 -83 0
685 -772 -85 0
772 -685 -85 0
700 -641 -87 0
641 -700 -87 0
809 -717 -89 0
717 -809 -89 0
692 -735 -91 0
735 -692 -91 0
701 -775 -93 0
775 -701 -93 0
615 -828 -95 0
828 -615 -95 0
834 -765 -97 0
765 -834 -97 0
844 -627 -99 0
627 -844 -99 0
722 -651 -101 0
651 -722 -101 0
824 -791 -103 0
791 -824 -103 0
728 -723 -105 0
723 -728 -105 0
766 -733 -107 0
733 -766 -107 0
845 -759 -109 0
759 -845 -109 0
784 -650 -111 0
650 -784 -111 0
764 -755 -113 0
755 -764 -113 0
852 -673 -115 0
673 -852 -115 0
653 -814 -117 0
814 -653 -117 0
626 -748 -119 0
748 -626 -119 0
827 -717 -121 0
717 -827 -121 0
710 -780 -123 0
780 -710 -123 0
623 -853 -125 0
853 -623 -125 0
756 -724 -127 0
724 -756 -127 0
750 -854 -129 0
854 -750 -129 0
672 -747 -131 0
747 -672 -131 0
642 -647 -133 0
647 -642 -133 0
737 -708 -135 0
708 -737 -135 0
805 -735 -137 0
735 -805 -137 0
623 -853 -139 0
853 -623 -139 0
637 -675 -141 0
675 -637 -141 0
758 -763 -143 0
763 -758 -143 0
742 -663 -145 0
663 -742 -145 0
740 -678 -147 0
678 -740 -147 0
767 -855 -149 0
855 -767 -149 0
658 -813 -151 0
813 -658 -151 0
749 -795 -153 0
795 -749 -153 0
630 -643 -155 0
643 -630 -155 0
838 -784 -157 0
784 -838 -157 0
619 -833 -159 0
833 -619 -159 0
842 -683 -161 0
683 -842 -161 0
815 -719 -163 0
719 -815 -163 0
670 -658 -165 0
658 -670 -165 0
635 -651 -167 0
651 -635 -167 0
704 -614 -169 0
614 -704 -169 0
750 -820 -171 0
820 -750 -171 0
747 -785 -173 0
785 -747 -173 0
705 -663 -175 0
663 -705 -175 0
659 -694 -177 0
694 -659 -177 0
828 -772 -179 0
772 -828 -179 0
724 -639 -181 0
639 -724 -181 0
766 -851 -183 0
851 -766 -183 0
702 -691 -185 0
691 -702 -185 0
695 -795 -187 0
795 -695 -187 0
781 -687 -189 0
687 -781 -189 0
781 -767 -191 0
767 -781 -191 0
855 -789 -193 0
789 -855 -193 0
756 -639 -195 0
639 -756 -195 0
746 -787 -197 0
787 -746 -197 0
672 -747 -199 0
747 -672 -199 0
707 -641 -201 0
641 -707 -201 0
761 -789 -203 0
789 -761 -203 0
786 -657 -205 0
657 -786 -205 0
824 -776 -207 0
776 -824 -207 0
794 -833 -209 0
833 -794 -209 0
825 -811 -211 0
811 -825 -211 0
825 -811 -213 0
811 -825 -213 0
853 -684 -215 0
684 -853 -215 0
809 -754 -217 0
754 -809 -217 0
775 -842 -219 0
842 -775 -219 0
624 -706 -221 0
706 -624 -221 0
805 -691 -223 0
691 -805 -223 0
661 -822 -225 0
822 -661 -225 0
796 -670 -227 0
670 -796 -227 0
768 -614 -229 0
614 -768 -229 0
832 -847 -231 0
847 -832 -231 0
803 -650 -233 0
650 -803 -233 0
628 -817 -235 0
817 -628 -235 0
676 -731 -237 0
731 -676 -237 0
649 -839 -239 0
839 -649 -239 0
690 -652 -241 0
652 -690 -241 0
745 -621 -243 0
621 -745 -243 0
632 -718 -245 0
718 -632 -245 0
752 -798 -247 0
798 -752 -247 0
847 -849 -249 0
849 -847 -249 0
613 -691 -251 0
691 -613 -251 0
622 -611 -253 0
611 -622 -253 0
797 -832 -255 0
832 -797 -255 0
818 -826 -257 0
826 -818 -257 0
820 -744 -259 0
744 -820 -259 0
757 -835 -261 0
835 -757 -261 0
661 -718 -263 0
718 -661 -263 0
752 -660 -265 0
660 -752 -265 0
812 -685 -267 0
685 -812 -267 0
761 -674 -269 0
674 -761 -269 0
749 -695 -271 0
695 -749 -271 0
721 -795 -273 0
795 -721 -273 0
727 -799 -275 0
799 -727 -275 0
638 -828 -277 0
828 -638 -277 0
834 -765 -279 0
765 -834 -279 0
788 -676 -281 0
676 -788 -281 0
662 -843 -283 0
843 -662 -283 0
688 -679 -285 0
679 -688 -285 0
826 -611 -287 0
611 -826 -287 0
612 -742 -289 0
742 -612 -289 0
732 -640 -291 0
640 -732 -291 0
631 -832 -293 0
832 -631 -293 0
712 -659 -295 0
659 -712 -295 0
631 -782 -297 0
782 -631 -297 0
837 -840 -299 0
840 -837 -299 0
790 -683 -301 0
683 -790 -301 0
714 -800 -303 0
800 -714 -303 0
623 -835 -305 0
835 -623 -305 0
809 -705 -307 0
705 -809 -307 0
659 -780 -309 0
780 -659 -309 0
680 -817 -311 0
817 -680 -311 0
708 -798 -313 0
798 -708 -313 0
667 -762 -315 0
762 -667 -315 0
634 -836 -317 0
836 -634 -317 0
624 -715 -319 0
715 -624 -319 0
851 -619 -321 0
619 -851 -321 0
644 -633 -323 0
633 -644 -323 0
616 -829 -325 0
829 -616 -325 0
629 -796 -327 0
796 -629 -327 0
846 -664 -329 0
664 -846 -329 0
709 -671 -331 0
671 -709 -331 0
694 -792 -333 0
792 -694 -333 0
721 -705 -335 0
705 -721 -335 0
673 -827 -337 0
827 -673 -337 0
783 -663 -339 0
663 -783 -339 0
636 -655 -341 0
655 -636 -341 0
739 -734 -343 0
734 -739 -343 0
743 -678 -345 0
678 -743 -345 0
847 -657 -347 0
657 -847 -347 0
805 -725 -349 0
725 -805 -349 0
852 -637 -351 0
637 -852 -351 0
737 -758 -353 0
758 -737 -353 0
807 -762 -355 0
762 -807 -355 0
769 -739 -357 0
739 -769 -357 0
828 -772 -359 0
772 -828 -359 0
803 -796 -361 0
796 -803 -361 0
733 -833 -363 0
833 -733 -363 0
684 -686 -365 0
686 -684 -365 0
843 -684 -367 0
684 -843 -367 0
660 -753 -369 0
753 -660 -369 0
684 -627 -371 0
627 -684 -371 0
644 -689 -373 0
689 -644 -373 0
697 -614 -375 0
614 -697 -375 0
617 -682 -377 0
682 -617 -377 0
779 -612 -379 0
612 -779 -379 0
661 -679 -381 0
679 -661 -381 0
620 -671 -383 0
671 -620 -383 0
659 -738 -385 0
738 -659 -385 0
645 -829 -387 0
829 -645 -387 0
788 -740 -389 0
740 -788 -389 0
707 -838 -391 0
838 -707 -391 0
836 -706 -393 0
706 -836 -393 0
841 -755 -395 0
755 -841 -395 0
822 -632 -397 0
632 -822 -397 0
823 -830 -399 0
830 -823 -399 0
617 -713 -401 0
713 -617 -401 0
678 -654 -403 0
654 -678 -403 0
777 -845 -405 0
845 -777 -405 0
645 -669 -407 0
669 -645 -407 0
702 -619 -409 0
619 -702 -409 0
794 -702 -411 0
702 -794 -411 0
642 -831 -413 0
831 -642 -413 0
689 -722 -415 0
722 -689 -415 0
797 -760 -417 0
760 -797 -417 0
852 -695 -419 0
695 -852 -419 0
618 -783 -421 0
783 -618 -421 0
755 -790 -423 0
790 -755 -423 0
683 -790 -425 0
790 -683 -425 0
726 -769 -427 0
769 -726 -427 0
664 -709 -429 0
709 -664 -429 0
615 -685 -431 0
685 -615 -431 0
854 -830 -433 0
830 -854 -433 0
754 -663 -435 0
663 -754 -435 0
789 -630 -437 0
630 -789 -437 0
645 -611 -439 0
611 -645 -439 0
710 -728 -441 0
728 -710 -441 0
682 -752 -443 0
752 -682 -443 0
775 -842 -445 0
842 -775 -445 0
617 -849 -447 0
849 -617 -447 0
701 -649 -449 0
649 -701 -449 0
714 -744 -451 0
744 -714 -451 0
773 -800 -453 0
800 -773 -453 0
617 -681 -455 0
681 -617 -455 0
764 -757 -457 0
757 -764 -457 0
640 -821 -459 0
821 -640 -459 0
779 -754 -461 0
754 -779 -461 0
850 -651 -463 0
651 -850 -463 0
734 -704 -465 0
704 -734 -465 0
730 -613 -467 0
613 -730 -467 0
731 -763 -469 0
763 -731 -469 0
812 -802 -471 0
802 -812 -471 0
653 -736 -473 0
736 -653 -473 0
645 -755 -475 0
755 -645 -475 0
673 -656 -477 0
656 -673 -477 0
723 -621 -479 0
621 -723 -479 0
771 -737 -481 0
737 -771 -481 0
643 -654 -483 0
654 -643 -483 0
730 -699 -485 0
699 -730 -485 0
846 -687 -487 0
687 -846 -487 0
648 -736 -489 0
736 -648 -489 0
778 -815 -491 0
815 -778 -491 0
798 -660 -493 0
660 -798 -493 0
762 -688 -495 0
688 -762 -495 0
721 -663 -497 0
663 -721 -497 0
804 -806 -499 0
806 -804 -499 0
770 -636 -501 0
636 -770 -501 0
639 -756 -503 0
756 -639 -503 0
727 -628 -505 0
628 -727 -505 0
794 -735 -507 0
735 -794 -507 0
672 -698 -509 0
698 -672 -509 0
667 -718 -511 0
718 -667 -511 0
658 -751 -513 0
751 -658 -513 0
787 -840 -515 0
840 -787 -515 0
624 -715 -517 0
715 -624 -517 0
692 -856 -519 0
856 -692 -519 0
625 -793 -521 0
793 -625 -521 0
745 -704 -523 0
704 -745 -523 0
641 -838 -525 0
838 -641 -525 0
844 -786 -527 0
786 -844 -527 0
612 -827 -529 0
827 -612 -529 0
690 -635 -531 0
635 -690 -531 0
765 -657 -533 0
657 -765 -533 0
722 -690 -535 0
690 -722 -535 0
616 -835 -537 0
835 -616 -537 0
774 -730 -539 0
730 -774 -539 0
770 -743 -541 0
743 -770 -541 0
732 -814 -543 0
814 -732 -543 0
823 -700 -545 0
700 -823 -545 0
848 -680 -547 0
680 -848 -547 0
760 -765 -549 0
765 -760 -549 0
820 -801 -551 0
801 -820 -551 0
786 -729 -553 0
729 -786 -553 0
840 -632 -555 0
632 -840 -555 0
730 -834 -557 0
834 -730 -557 0
793 -656 -559 0
656 -793 -559 0
712 -659 -561 0
659 -712 -561 0
644 -618 -563 0
618 -644 -563 0
837 -649 -565 0
649 -837 -565 0
742 -724 -567 0
724 -742 -567 0
841 -686 -569 0
686 -841 -569 0
748 -650 -571 0
650 -748 -571 0
677 -694 -573 0
694 -677 -573 0
634 -744 -575 0
744 -634 -575 0
623 -662 -577 0
662 -623 -577 0
850 -625 -579 0
625 -850 -579 0
813 -751 -581 0
751 -813 -581 0
814 -815 -583 0
815 -814 -583 0
726 -810 -585 0
810 -726 -585 0
654 -655 -587 0
655 -654 -587 0
808 -671 -589 0
671 -808 -589 0
656 -637 -591 0
637 -656 -591 0
843 -616 -593 0
616 -843 -593 0
693 -849 -595 0
849 -693 -595 0
698 -699 -597 0
699 -698 -597 0
784 -801 -599 0
801 -784 -599 0
646 -736 -601 0
736 -646 -601 0
651 -635 -603 0
635 -651 -603 0
757 -782 -605 0
782 -757 -605 0
633 -783 -607 0
783 -633 -607 0
717 -779 -609 0
779 -717 -609 0

